SDVRP instances/custom_instances/p01_10_splitx10_0.vrp
NAME:p01_10_splitx10_
BEST_KNOWN: 0
COMMENT: 0
DIMENSION: 264
CAPACITY: 1600
EDGE_WEIGHT_FORMAT: FUNCTION
EDGE_WEIGHT_TYPE: EXACT_2D
NODE_COORD_SECTION
1 0.00000 0.00000
2 -34 6
3 -34 6
4 -34 6
5 -34 6
6 -34 6
7 -12 46
8 -12 46
9 -12 46
10 -12 46
11 7 37
12 7 37
13 7 37
14 7 37
15 7 37
16 7 37
17 7 37
18 -22 11
19 -22 11
20 -22 11
21 -22 11
22 -22 11
23 30 43
24 30 43
25 30 43
26 30 43
27 30 43
28 30 43
29 30 43
30 18 -6
31 18 -6
32 18 -6
33 18 -6
34 18 -6
35 18 -6
36 18 -6
37 18 -6
38 16 -19
39 16 -19
40 16 -19
41 16 -19
42 16 -19
43 16 -19
44 16 -19
45 1 -37
46 1 -37
47 1 -37
48 1 -37
49 1 -37
50 1 -37
51 1 -37
52 -41 -24
53 -41 -24
54 -41 -24
55 -41 -24
56 -41 -24
57 -41 -24
58 -41 -24
59 46 -40
60 46 -40
61 46 -40
62 46 -40
63 46 -40
64 42 28
65 42 28
66 42 28
67 42 28
68 42 28
69 42 28
70 42 28
71 42 28
72 -39 -46
73 -39 -46
74 -39 -46
75 -39 -46
76 12 -9
77 12 -9
78 12 -9
79 12 -9
80 12 -9
81 12 -9
82 -10 -17
83 -10 -17
84 -10 -17
85 14 15
86 14 15
87 14 15
88 14 15
89 14 15
90 14 15
91 14 15
92 14 15
93 -19 -28
94 -19 -28
95 -19 -28
96 -19 -28
97 -19 -28
98 -19 -28
99 -19 -28
100 2 -24
101 2 -24
102 2 -24
103 2 -24
104 2 -24
105 2 -24
106 2 -24
107 2 -24
108 -13 30
109 -13 30
110 -13 30
111 -13 30
112 -13 30
113 -13 30
114 6 -48
115 6 -48
116 6 -48
117 44 -35
118 44 -35
119 44 -35
120 37 2
121 37 2
122 37 2
123 13 7
124 13 7
125 -19 -40
126 -19 -40
127 -19 -40
128 -19 -40
129 -19 -40
130 -19 -40
131 -44 29
132 -44 29
133 -44 29
134 -44 29
135 -44 29
136 -44 29
137 -36 38
138 -36 38
139 -36 38
140 -36 38
141 -36 38
142 -36 38
143 -36 38
144 4 -14
145 4 -14
146 4 -14
147 4 -14
148 4 -14
149 45 33
150 45 33
151 45 33
152 45 33
153 45 33
154 -49 39
155 -49 39
156 -49 39
157 -49 39
158 -49 39
159 -49 39
160 -18 34
161 -18 34
162 -27 -45
163 -27 -45
164 -27 -45
165 -50 17
166 -50 17
167 -50 17
168 -50 17
169 -50 17
170 -50 17
171 50 -47
172 50 -47
173 50 -47
174 50 -47
175 50 -47
176 5 9
177 5 9
178 -3 40
179 -3 40
180 -3 40
181 -3 40
182 -3 40
183 -3 40
184 -3 40
185 17 11
186 17 11
187 17 11
188 17 11
189 17 11
190 17 11
191 31 -15
192 31 -15
193 31 -15
194 31 -15
195 -27 45
196 -27 45
197 -27 45
198 -27 45
199 23 44
200 23 44
201 23 44
202 23 44
203 23 44
204 23 44
205 18 36
206 18 36
207 18 36
208 18 36
209 18 36
210 18 36
211 18 36
212 -34 -20
213 -34 -20
214 -34 -20
215 -34 -20
216 -34 -20
217 48 -38
218 48 -38
219 48 -38
220 48 -38
221 48 -38
222 -20 -17
223 -20 -17
224 -20 -17
225 37 44
226 37 44
227 37 44
228 37 44
229 37 44
230 37 44
231 -2 38
232 -2 38
233 -2 38
234 -2 38
235 35 -27
236 35 -27
237 35 -27
238 35 -27
239 35 -27
240 35 -27
241 35 -27
242 -33 35
243 -33 35
244 -33 35
245 -33 35
246 42 11
247 42 11
248 42 11
249 -42 42
250 -42 42
251 -42 42
252 -42 42
253 -42 42
254 -42 42
255 6 29
256 6 29
257 6 29
258 6 29
259 -21 8
260 -21 8
261 -21 8
262 -21 8
263 -21 8
264 -21 8
DEMAND_SECTION
1 0
2 160
3 16
4 16
5 16
6 2
7 320
8 16
9 16
10 8
11 320
12 160
13 80
14 16
15 16
16 16
17 12
18 320
19 320
20 80
21 16
22 4
23 320
24 320
25 80
26 16
27 16
28 16
29 2
30 320
31 320
32 80
33 16
34 16
35 16
36 16
37 6
38 320
39 320
40 80
41 16
42 16
43 16
44 12
45 320
46 320
47 16
48 16
49 16
50 16
51 6
52 320
53 80
54 16
55 16
56 16
57 16
58 6
59 160
60 16
61 16
62 16
63 2
64 320
65 320
66 80
67 16
68 16
69 16
70 16
71 6
72 320
73 160
74 80
75 10
76 320
77 320
78 80
79 16
80 16
81 8
82 320
83 80
84 10
85 320
86 160
87 80
88 16
89 16
90 16
91 16
92 6
93 320
94 320
95 16
96 16
97 16
98 16
99 6
100 320
101 320
102 80
103 16
104 16
105 16
106 16
107 6
108 320
109 160
110 80
111 16
112 16
113 8
114 320
115 16
116 4
117 160
118 80
119 10
120 320
121 16
122 4
123 320
124 320
125 320
126 16
127 16
128 16
129 16
130 6
131 320
132 80
133 16
134 16
135 16
136 12
137 320
138 320
139 80
140 16
141 16
142 16
143 2
144 320
145 320
146 80
147 16
148 4
149 320
150 160
151 16
152 16
153 8
154 320
155 320
156 16
157 16
158 16
159 12
160 320
161 160
162 320
163 320
164 80
165 320
166 320
167 16
168 16
169 16
170 2
171 320
172 160
173 80
174 16
175 14
176 320
177 320
178 320
179 320
180 80
181 16
182 16
183 16
184 12
185 160
186 80
187 16
188 16
189 16
190 2
191 320
192 160
193 16
194 4
195 320
196 80
197 16
198 14
199 320
200 80
201 16
202 16
203 16
204 2
205 320
206 320
207 80
208 16
209 16
210 16
211 12
212 320
213 160
214 80
215 16
216 4
217 160
218 80
219 16
220 16
221 8
222 320
223 160
224 80
225 320
226 80
227 16
228 16
229 16
230 2
231 320
232 160
233 80
234 10
235 160
236 80
237 16
238 16
239 16
240 16
241 6
242 320
243 320
244 16
245 4
246 320
247 320
248 160
249 160
250 80
251 16
252 16
253 16
254 12
255 160
256 80
257 16
258 14
259 320
260 160
261 16
262 16
263 16
264 12
DEPOT_SECTION
1
-1
EOF