SDVRP instances/custom_instances/p01_10_splitx10_0.sol
263 -2 5 4 1 3 133 135 132 155 156 153 157 158 154 251 252 250 249 248 253 139 136 -21 20 19 18 17 262 261 263 259 260 258 -28 27 26 22 24 23 25 229 228 227 226 224 225 88 89 90 91 84 -36 35 33 32 31 30 29 34 75 76 77 80 78 79 -38 39 42 37 40 43 41 235 240 238 237 239 190 192 191 193 -49 47 45 50 44 48 46 115 113 114 128 125 124 129 127 126 -61 60 62 58 59 170 173 171 172 174 219 220 217 216 218 116 118 117 234 236 -81 82 83 98 94 96 93 97 95 92 -86 85 87 200 199 198 202 201 203 204 207 206 209 205 208 210 -101 105 104 103 106 100 102 99 144 147 146 143 145 -111 108 109 107 110 112 9 7 8 6 177 179 231 232 -120 119 121 247 246 245 -123 122 176 175 -142 137 138 140 141 130 134 131 169 167 164 166 168 165 -152 148 150 151 149 64 67 70 69 63 65 66 68 187 184 188 186 185 189 -159 160 196 194 197 195 241 242 244 243 -161 162 163 72 71 74 73 223 -211 213 214 212 215 54 53 51 56 52 55 57 222 221 -233 230 182 181 183 180 178 16 10 13 15 11 14 12 255 256 254 257 0 





OBJ=
1803.564
BEST_KNOWN=
0.000